Version identifier: 22.1.0.0 | 2022-03-09 | 1a383f8ce
CPXPARAM_Threads                                 1
CPXPARAM_MIP_Strategy_VariableSelect             3
CPXPARAM_TimeLimit                               599.99998242900006
1 of 1 MIP starts provided solutions.
MIP start 'm1' defined initial solution with objective 3.0000.
Tried aggregator 1 time.
MIP Presolve eliminated 19 rows and 0 columns.
MIP Presolve modified 7 coefficients.
Reduced MIP has 1001 rows, 2000 columns, and 21729 nonzeros.
Reduced MIP has 2000 binaries, 0 generals, 0 SOSs, and 0 indicators.
Presolve time = 0.02 sec. (15.97 ticks)
Probing time = 0.00 sec. (2.78 ticks)
Tried aggregator 1 time.
Detecting symmetries...
MIP Presolve eliminated 2 rows and 0 columns.
Reduced MIP has 999 rows, 2000 columns, and 21680 nonzeros.
Reduced MIP has 2000 binaries, 0 generals, 0 SOSs, and 0 indicators.
Presolve time = 0.02 sec. (14.93 ticks)
Probing time = 0.00 sec. (2.77 ticks)
Clique table members: 784.
MIP emphasis: balance optimality and feasibility.
MIP search method: dynamic search.
Parallel mode: none, using 1 thread.
Root relaxation solution time = 0.15 sec. (139.35 ticks)

        Nodes                                         Cuts/
   Node  Left     Objective  IInf  Best Integer    Best Bound    ItCnt     Gap

*     0+    0                            3.0000     2000.0000              --- 
      0     0      100.0000   439        3.0000      100.0000     1514     --- 
      0     0      100.0000   180        3.0000       Cuts: 3     1740     --- 
      0     0      100.0000   384        3.0000      Cuts: 70     3507     --- 
      0     0      100.0000   138        3.0000    Cliques: 1     3543     --- 
*     0+    0                           85.0000      100.0000            17.65%
*     0+    0                           94.0000      100.0000             6.38%
      0     0        cutoff             94.0000      100.0000     3543    6.38%
      0     0      100.0000   190       94.0000      Cuts: 46     4038    6.38%
*     0+    0                           95.0000      100.0000             5.26%
*     0+    0                           97.0000      100.0000             3.09%
      0     0        cutoff             97.0000      100.0000     4038    3.09%
Detecting symmetries...
      0     2      100.0000    94       97.0000      100.0000     4038    3.09%
Elapsed time = 5.28 sec. (4918.73 ticks, tree = 0.01 MB, solutions = 5)
      1     3      100.0000   275       97.0000      100.0000     7469    3.09%
      3     5      100.0000   137       97.0000      100.0000     8851    3.09%
      5     7      100.0000   348       97.0000      100.0000    10876    3.09%
      7     9      100.0000   304       97.0000      100.0000    12347    3.09%
      9    11      100.0000   195       97.0000      100.0000    13414    3.09%
     11    13      100.0000   153       97.0000      100.0000    14932    3.09%
     13    15      100.0000   233       97.0000      100.0000    16060    3.09%
     15    17      100.0000   188       97.0000      100.0000    17809    3.09%
     17    19      100.0000   177       97.0000      100.0000    18272    3.09%
     25    27      100.0000   130       97.0000      100.0000    19445    3.09%
Elapsed time = 9.76 sec. (9393.95 ticks, tree = 0.19 MB, solutions = 5)
     33    35      100.0000   130       97.0000      100.0000    21664    3.09%
     41    43      100.0000   161       97.0000      100.0000    24053    3.09%
     48    50      100.0000   174       97.0000      100.0000    27411    3.09%
     55    57      100.0000   188       97.0000      100.0000    30361    3.09%
     63    65      100.0000   216       97.0000      100.0000    33129    3.09%
     71    73      100.0000   159       97.0000      100.0000    34588    3.09%
     80    82      100.0000   198       97.0000      100.0000    37508    3.09%
     89    91      100.0000   202       97.0000      100.0000    40206    3.09%
     94    96      100.0000   179       97.0000      100.0000    41631    3.09%
    102   104      100.0000   183       97.0000      100.0000    43322    3.09%
Elapsed time = 20.35 sec. (19816.15 ticks, tree = 0.82 MB, solutions = 5)
    112   114      100.0000   183       97.0000      100.0000    45878    3.09%
    122   124      100.0000   200       97.0000      100.0000    48035    3.09%
    132   134      100.0000   185       97.0000      100.0000    50406    3.09%
    142   144      100.0000   156       97.0000      100.0000    53036    3.09%
    153   155      100.0000   174       97.0000      100.0000    55986    3.09%
    165   167      100.0000   132       97.0000      100.0000    58082    3.09%
    177   179      100.0000   128       97.0000      100.0000    60536    3.09%
    189   191      100.0000    66       97.0000      100.0000    62949    3.09%
    200   202      100.0000   194       97.0000      100.0000    66267    3.09%
    212   214      100.0000   224       97.0000      100.0000    69161    3.09%
Elapsed time = 30.78 sec. (29934.47 ticks, tree = 1.80 MB, solutions = 5)
    224   226      100.0000   174       97.0000      100.0000    72349    3.09%
    237   239      100.0000   140       97.0000      100.0000    74699    3.09%
    248   250      100.0000   151       97.0000      100.0000    76584    3.09%
    262   258       99.8158   115       97.0000      100.0000    82143    3.09%
    282   263      100.0000   161       97.0000      100.0000    87079    3.09%
    294   275      100.0000   156       97.0000      100.0000    89575    3.09%
    305   286      100.0000   140       97.0000      100.0000    91594    3.09%
    317   296      100.0000   152       97.0000      100.0000    94830    3.09%
    329   307      100.0000   155       97.0000      100.0000    97693    3.09%
    342   320      100.0000   138       97.0000      100.0000   100764    3.09%
Elapsed time = 41.43 sec. (39886.09 ticks, tree = 2.77 MB, solutions = 5)
    356   334      100.0000   120       97.0000      100.0000   104513    3.09%
    369   347      100.0000   104       97.0000      100.0000   107323    3.09%
    384   362       99.9463   188       97.0000      100.0000   110918    3.09%
    399   376      100.0000   147       97.0000      100.0000   114215    3.09%
    412   388       99.6313   153       97.0000      100.0000   119074    3.09%
    435   397       98.7343   155       97.0000      100.0000   120761    3.09%
    455   406      100.0000   162       97.0000      100.0000   123074    3.09%
    468   419      100.0000   159       97.0000      100.0000   125052    3.09%
    480   431      100.0000   216       97.0000      100.0000   126494    3.09%
    495   446      100.0000   180       97.0000      100.0000   128193    3.09%
Elapsed time = 52.12 sec. (49882.54 ticks, tree = 3.90 MB, solutions = 5)
    508   458       98.5000   174       97.0000      100.0000   131990    3.09%
    509   459      100.0000   128       97.0000      100.0000   132398    3.09%

Performing restart 1

Repeating presolve.
Tried aggregator 1 time.
Reduced MIP has 999 rows, 2000 columns, and 21680 nonzeros.
Reduced MIP has 2000 binaries, 0 generals, 0 SOSs, and 0 indicators.
Presolve time = 0.01 sec. (12.61 ticks)
Tried aggregator 1 time.
Reduced MIP has 999 rows, 2000 columns, and 21680 nonzeros.
Reduced MIP has 2000 binaries, 0 generals, 0 SOSs, and 0 indicators.
Presolve time = 0.02 sec. (14.99 ticks)
Represolve time = 0.10 sec. (75.37 ticks)
    513     0      100.0000   234       97.0000    Cliques: 2   136155    3.09%
    513     0      100.0000   363       97.0000     Cuts: 142   137923    3.09%
    513     0      100.0000   209       97.0000       Cuts: 3   138956    3.09%
    513     2      100.0000    99       97.0000      100.0000   138956    3.09%
    519     8      100.0000   202       97.0000      100.0000   145288    3.09%
    528    17      100.0000   255       97.0000      100.0000   147739    3.09%
    538    27      100.0000   225       97.0000      100.0000   150857    3.09%
    547    36      100.0000   397       97.0000      100.0000   153680    3.09%
    553    42      100.0000   282       97.0000      100.0000   157692    3.09%
    559    48      100.0000   210       97.0000      100.0000   163229    3.09%
    563    52      100.0000   208       97.0000      100.0000   164966    3.09%
Elapsed time = 71.02 sec. (68304.39 ticks, tree = 0.05 MB, solutions = 5)
    571    60      100.0000   186       97.0000      100.0000   168793    3.09%
    580    69      100.0000   236       97.0000      100.0000   173997    3.09%
    588    77      100.0000   266       97.0000      100.0000   176312    3.09%
    593    82      100.0000   193       97.0000      100.0000   179215    3.09%
    603    92      100.0000   133       97.0000      100.0000   181464    3.09%
    611   100      100.0000   240       97.0000      100.0000   187009    3.09%
    613   102      100.0000   202       97.0000      100.0000   187833    3.09%
    625   114      100.0000   196       97.0000      100.0000   191514    3.09%
    637   126      100.0000   203       97.0000      100.0000   195177    3.09%
    649   138      100.0000   204       97.0000      100.0000   198577    3.09%
Elapsed time = 86.23 sec. (82734.21 ticks, tree = 0.16 MB, solutions = 5)
    661   150      100.0000   247       97.0000      100.0000   203287    3.09%
    673   162      100.0000   252       97.0000      100.0000   206512    3.09%
    686   175      100.0000   182       97.0000      100.0000   211949    3.09%
    698   185       99.3312   168       97.0000      100.0000   217117    3.09%
    708   188      100.0000   135       97.0000      100.0000   225888    3.09%
    715   195      100.0000   308       97.0000      100.0000   231385    3.09%
    722   202      100.0000   192       97.0000      100.0000   233858    3.09%
    729   209      100.0000   205       97.0000      100.0000   239110    3.09%
    735   215      100.0000   178       97.0000      100.0000   240391    3.09%
    741   221      100.0000   309       97.0000      100.0000   246788    3.09%
Elapsed time = 97.31 sec. (93472.57 ticks, tree = 0.31 MB, solutions = 5)
    748   228      100.0000   249       97.0000      100.0000   250921    3.09%
    757   237      100.0000   224       97.0000      100.0000   252424    3.09%
    764   244      100.0000   182       97.0000      100.0000   257073    3.09%
    773   253      100.0000   163       97.0000      100.0000   259230    3.09%
    782   262      100.0000   254       97.0000      100.0000   261963    3.09%
    789   269      100.0000   282       97.0000      100.0000   266992    3.09%
    794   274      100.0000   234       97.0000      100.0000   269418    3.09%
    800   280      100.0000   310       97.0000      100.0000   275038    3.09%
    808   288      100.0000   201       97.0000      100.0000   278046    3.09%
    817   297      100.0000   164       97.0000      100.0000   280820    3.09%
Elapsed time = 108.53 sec. (104499.83 ticks, tree = 0.94 MB, solutions = 5)
    827   307      100.0000   195       97.0000      100.0000   285076    3.09%
    833   313      100.0000   183       97.0000      100.0000   290638    3.09%
    842   322      100.0000   165       97.0000      100.0000   293433    3.09%
    852   332      100.0000   165       97.0000      100.0000   295853    3.09%
    863   343      100.0000   148       97.0000      100.0000   298797    3.09%
    874   354      100.0000   166       97.0000      100.0000   301171    3.09%
    885   365      100.0000   157       97.0000      100.0000   304445    3.09%
    897   377      100.0000   116       97.0000      100.0000   307897    3.09%
    909   388      100.0000   116       97.0000      100.0000   313556    3.09%
    954   432      100.0000   133       97.0000      100.0000   332996    3.09%
Elapsed time = 122.15 sec. (117319.84 ticks, tree = 2.09 MB, solutions = 5)
   1013   465      100.0000   155       97.0000      100.0000   355787    3.09%
   1060   499       99.8485   148       97.0000      100.0000   377437    3.09%
   1121   545      100.0000   115       97.0000      100.0000   396768    3.09%
   1176   581       99.0972   121       97.0000      100.0000   417993    3.09%
   1243   614       99.9153   167       97.0000      100.0000   437692    3.09%
   1323   662       99.9194   144       97.0000      100.0000   451742    3.09%
   1381   704      100.0000   112       97.0000      100.0000   468634    3.09%
   1473   738       99.8718   133       97.0000      100.0000   482885    3.09%
   1554   787       99.9074   160       97.0000      100.0000   494614    3.09%
   1623   839       99.3750   119       97.0000      100.0000   511951    3.09%
Elapsed time = 165.26 sec. (156143.07 ticks, tree = 5.69 MB, solutions = 5)
   1700   881       99.1857   141       97.0000      100.0000   527719    3.09%
   1778   929      100.0000   136       97.0000      100.0000   542462    3.09%
   1840   966       99.4531   143       97.0000      100.0000   562525    3.09%
   1915  1007       99.5085   128       97.0000      100.0000   582414    3.09%
   2003  1038       99.8314   150       97.0000      100.0000   602448    3.09%
   2073  1074       98.6111   128       97.0000      100.0000   627677    3.09%
   2152  1117       98.0000   145       97.0000      100.0000   643376    3.09%
   2232  1156       99.9390   132       97.0000      100.0000   660545    3.09%
   2314  1193       99.7561   179       97.0000      100.0000   676896    3.09%
   2375  1235       99.4000   139       97.0000      100.0000   693377    3.09%
Elapsed time = 207.94 sec. (194789.73 ticks, tree = 9.22 MB, solutions = 5)
   2446  1279      100.0000   151       97.0000      100.0000   710055    3.09%
   2514  1318       99.2742   131       97.0000      100.0000   725650    3.09%
   2573  1351       99.8611   164       97.0000      100.0000   749621    3.09%
   2631  1383      100.0000   116       97.0000      100.0000   764693    3.09%
   2713  1415       98.5217   111       97.0000      100.0000   773776    3.09%
   2799  1470      100.0000   180       97.0000      100.0000   787936    3.09%
   2843  1502      100.0000   181       97.0000      100.0000   816009    3.09%
   2917  1556       98.3333    92       97.0000      100.0000   826293    3.09%
   2974  1598       98.7500   154       97.0000      100.0000   841153    3.09%
   3047  1640       99.2857   124       97.0000      100.0000   856799    3.09%
Elapsed time = 252.14 sec. (234542.42 ticks, tree = 12.81 MB, solutions = 5)
   3130  1679       99.7659   149       97.0000      100.0000   871302    3.09%
   3209  1722       98.7500    97       97.0000      100.0000   887116    3.09%
   3296  1769       99.6888   137       97.0000      100.0000   903464    3.09%
   3379  1805       99.5833   141       97.0000      100.0000   921253    3.09%
   3448  1841       99.7222   157       97.0000      100.0000   938529    3.09%
   3522  1885      100.0000   147       97.0000      100.0000   951880    3.09%
   3608  1919       98.5080   128       97.0000      100.0000   966727    3.09%
   3687  1951        cutoff             97.0000      100.0000   986623    3.09%
   3758  1987      100.0000   186       97.0000      100.0000  1006318    3.09%
   3821  2027       98.4313   134       97.0000      100.0000  1026336    3.09%
Elapsed time = 295.10 sec. (273032.35 ticks, tree = 16.24 MB, solutions = 5)
   3890  2072       99.5455   128       97.0000      100.0000  1039519    3.09%
   3967  2106       99.3750   148       97.0000      100.0000  1056353    3.09%
   4013  2128       98.2793   146       97.0000      100.0000  1062817    3.09%
   4102  2161       98.3333    62       97.0000      100.0000  1077885    3.09%
   4173  2201       99.5000   141       97.0000      100.0000  1092971    3.09%
   4239  2247       98.7500   121       97.0000      100.0000  1108341    3.09%
   4305  2291       98.0000   132       97.0000      100.0000  1129043    3.09%
   4371  2337       99.0000    89       97.0000      100.0000  1145018    3.09%
   4437  2388      100.0000   151       97.0000      100.0000  1162149    3.09%
   4494  2411       99.9896   204       97.0000      100.0000  1189751    3.09%
Elapsed time = 340.23 sec. (313597.13 ticks, tree = 19.71 MB, solutions = 5)
   4562  2455      100.0000    99       97.0000      100.0000  1208379    3.09%
   4622  2476       99.7333   163       97.0000      100.0000  1238397    3.09%
   4693  2512    infeasible             97.0000      100.0000  1260544    3.09%
*  4734     1      integral     0      100.0000      100.0000  1272829    0.00%

Clique cuts applied:  19

Root node processing (before b&c):
  Real time             =    5.27 sec. (4909.34 ticks)
Sequential b&c:
  Real time             =  350.48 sec. (322458.17 ticks)
                          ------------
Total (root+branch&cut) =  355.76 sec. (327367.51 ticks)
Primal:	100
Dual:	100
Status:	Optimal
Time:	355.76
Sequence:
	2
	16
	0
	2
	13
	5
	3
	12
	10
	8
	9
	1
	14
	17
	15
	11
	18
	6
	1
	8
	7
	1
	3
	11
	15
	7
	3
	11
	1
	17
	14
	15
	11
	0
	16
	8
	19
	9
	4
	19
	7
	3
	19
	5
	13
	3
	19
	5
	8
	12
	16
	0
	19
	4
	11
	6
	4
	19
	11
	4
	6
	12
	16
	18
	12
	9
	10
	2
	17
	10
	19
	9
	4
	19
	17
	14
	1
	9
	18
	15
	13
	9
	14
	10
	12
	9
	7
	2
	16
	0
	8
	11
	16
	2
	0
	16
	12
	11
	3
	15
